SECTION Graph
Nodes 402
Edges 690
E 1 2 5
E 3 4 5
E 4 5 5
E 5 6 5
E 6 7 5
E 7 8 5
E 8 9 5
E 9 10 5
E 10 11 5
E 11 12 5
E 12 13 5
E 13 14 5
E 14 15 5
E 15 16 5
E 16 17 5
E 19 20 5
E 20 21 5
E 1 22 13
E 2 23 13
E 3 25 13
E 4 26 13
E 5 27 13
E 6 28 13
E 7 29 13
E 8 30 13
E 9 31 13
E 10 32 13
E 11 33 13
E 12 34 13
E 13 35 13
E 15 37 13
E 16 38 13
E 17 39 13
E 18 41 13
E 19 42 13
E 21 43 13
E 22 23 5
E 23 24 5
E 24 25 5
E 25 26 5
E 26 27 5
E 27 28 5
E 28 29 5
E 29 30 5
E 30 31 5
E 31 32 5
E 32 33 5
E 33 34 5
E 34 35 5
E 35 36 5
E 36 37 5
E 37 38 5
E 38 39 5
E 39 40 5
E 40 41 5
E 22 44 13
E 23 45 13
E 24 46 13
E 25 47 13
E 26 48 13
E 27 49 13
E 28 50 13
E 29 51 13
E 30 52 13
E 31 53 13
E 32 54 13
E 34 56 13
E 35 57 13
E 36 58 13
E 37 59 13
E 38 60 13
E 39 61 13
E 40 62 13
E 41 63 13
E 42 65 13
E 43 66 13
E 44 45 5
E 45 46 5
E 46 47 5
E 47 48 5
E 48 49 5
E 49 50 5
E 50 51 5
E 51 52 5
E 52 53 5
E 53 54 5
E 54 55 5
E 55 56 5
E 56 57 5
E 57 58 5
E 58 59 5
E 59 60 5
E 60 61 5
E 61 62 5
E 62 63 5
E 63 64 5
E 64 65 5
E 44 67 13
E 45 68 13
E 46 69 13
E 47 70 13
E 48 71 13
E 49 72 13
E 50 73 13
E 51 74 13
E 52 75 13
E 54 77 13
E 55 78 13
E 56 79 13
E 57 80 13
E 59 82 13
E 60 83 13
E 61 84 13
E 62 85 13
E 63 86 13
E 64 87 13
E 65 88 13
E 66 90 13
E 67 68 5
E 68 69 5
E 69 70 5
E 70 71 5
E 71 72 5
E 72 73 5
E 73 74 5
E 74 75 5
E 75 76 5
E 76 77 5
E 77 78 5
E 78 79 5
E 79 80 5
E 80 81 5
E 81 82 5
E 82 83 5
E 83 84 5
E 84 85 5
E 85 86 5
E 86 87 5
E 87 88 5
E 88 89 5
E 89 90 5
E 67 91 13
E 68 92 13
E 69 93 13
E 70 94 13
E 71 95 13
E 72 96 13
E 73 97 13
E 74 98 13
E 75 99 13
E 76 100 13
E 77 101 13
E 78 102 13
E 79 103 13
E 80 104 13
E 81 105 13
E 82 106 13
E 84 108 13
E 85 109 13
E 86 110 13
E 88 112 13
E 89 113 13
E 90 114 13
E 91 92 5
E 92 93 5
E 93 94 5
E 94 95 5
E 95 96 5
E 96 97 5
E 97 98 5
E 98 99 5
E 99 100 5
E 100 101 5
E 101 102 5
E 102 103 5
E 103 104 5
E 104 105 5
E 105 106 5
E 106 107 5
E 107 108 5
E 108 109 5
E 109 110 5
E 110 111 5
E 111 112 5
E 112 113 5
E 113 114 5
E 91 115 13
E 92 116 13
E 93 117 13
E 94 118 13
E 95 119 13
E 96 120 13
E 98 121 13
E 99 122 13
E 101 124 13
E 103 126 13
E 104 127 13
E 106 128 13
E 107 129 13
E 108 130 13
E 110 131 13
E 111 132 13
E 112 133 13
E 114 135 13
E 115 116 5
E 116 117 5
E 117 118 5
E 118 119 5
E 119 120 5
E 121 122 5
E 122 123 5
E 123 124 5
E 124 125 5
E 125 126 5
E 126 127 5
E 128 129 5
E 129 130 5
E 131 132 5
E 132 133 5
E 133 134 5
E 134 135 5
E 115 136 13
E 116 137 13
E 118 138 13
E 119 139 13
E 120 140 13
E 121 141 13
E 122 142 13
E 123 143 13
E 124 144 13
E 125 145 13
E 126 146 13
E 127 147 13
E 128 148 13
E 129 149 13
E 130 150 13
E 131 151 13
E 132 152 13
E 133 153 13
E 134 154 13
E 135 155 13
E 136 137 5
E 138 139 5
E 139 140 5
E 141 142 5
E 142 143 5
E 143 144 5
E 144 145 5
E 145 146 5
E 146 147 5
E 148 149 5
E 149 150 5
E 151 152 5
E 152 153 5
E 153 154 5
E 154 155 5
E 136 156 13
E 137 157 13
E 138 158 13
E 139 159 13
E 140 160 13
E 141 162 13
E 142 163 13
E 143 164 13
E 144 165 13
E 145 166 13
E 146 167 13
E 147 168 13
E 148 170 13
E 149 171 13
E 150 172 13
E 151 174 13
E 152 175 13
E 153 176 13
E 154 177 13
E 155 178 13
E 156 157 5
E 158 159 5
E 159 160 5
E 160 161 5
E 161 162 5
E 162 163 5
E 163 164 5
E 164 165 5
E 165 166 5
E 166 167 5
E 167 168 5
E 168 169 5
E 169 170 5
E 170 171 5
E 171 172 5
E 172 173 5
E 173 174 5
E 174 175 5
E 175 176 5
E 176 177 5
E 177 178 5
E 156 179 13
E 157 180 13
E 158 182 13
E 159 183 13
E 160 184 13
E 161 185 13
E 162 186 13
E 163 187 13
E 164 188 13
E 165 189 13
E 167 191 13
E 168 192 13
E 169 193 13
E 170 194 13
E 172 196 13
E 173 197 13
E 174 198 13
E 175 199 13
E 176 200 13
E 178 201 13
E 179 180 5
E 180 181 5
E 181 182 5
E 182 183 5
E 183 184 5
E 184 185 5
E 185 186 5
E 186 187 5
E 187 188 5
E 188 189 5
E 189 190 5
E 190 191 5
E 191 192 5
E 192 193 5
E 193 194 5
E 194 195 5
E 195 196 5
E 196 197 5
E 197 198 5
E 198 199 5
E 199 200 5
E 179 202 13
E 180 203 13
E 181 204 13
E 182 205 13
E 183 206 13
E 184 207 13
E 185 208 13
E 187 210 13
E 188 211 13
E 189 212 13
E 190 213 13
E 191 214 13
E 192 215 13
E 194 217 13
E 195 218 13
E 196 219 13
E 197 220 13
E 198 221 13
E 200 223 13
E 201 224 13
E 202 203 5
E 203 204 5
E 204 205 5
E 205 206 5
E 206 207 5
E 207 208 5
E 208 209 5
E 209 210 5
E 210 211 5
E 211 212 5
E 212 213 5
E 213 214 5
E 214 215 5
E 215 216 5
E 216 217 5
E 217 218 5
E 218 219 5
E 219 220 5
E 220 221 5
E 221 222 5
E 222 223 5
E 202 225 13
E 203 226 13
E 204 227 13
E 206 228 13
E 207 229 13
E 208 230 13
E 209 231 13
E 210 232 13
E 212 234 13
E 214 236 13
E 215 237 13
E 217 239 13
E 218 240 13
E 219 241 13
E 221 243 13
E 222 244 13
E 223 245 13
E 224 247 13
E 225 226 5
E 226 227 5
E 228 229 5
E 229 230 5
E 230 231 5
E 231 232 5
E 232 233 5
E 233 234 5
E 234 235 5
E 235 236 5
E 236 237 5
E 237 238 5
E 238 239 5
E 239 240 5
E 240 241 5
E 241 242 5
E 242 243 5
E 243 244 5
E 244 245 5
E 245 246 5
E 246 247 5
E 227 250 13
E 228 251 13
E 229 252 13
E 230 253 13
E 231 254 13
E 232 255 13
E 233 256 13
E 234 257 13
E 235 258 13
E 236 259 13
E 237 260 13
E 238 261 13
E 239 262 13
E 240 263 13
E 241 264 13
E 242 265 13
E 243 266 13
E 245 268 13
E 246 269 13
E 247 270 13
E 248 249 5
E 249 250 5
E 251 252 5
E 252 253 5
E 253 254 5
E 254 255 5
E 255 256 5
E 256 257 5
E 257 258 5
E 258 259 5
E 259 260 5
E 260 261 5
E 261 262 5
E 262 263 5
E 263 264 5
E 264 265 5
E 265 266 5
E 266 267 5
E 267 268 5
E 268 269 5
E 269 270 5
E 248 271 13
E 249 272 13
E 250 273 13
E 251 275 13
E 252 276 13
E 253 277 13
E 254 278 13
E 255 279 13
E 256 280 13
E 257 281 13
E 259 283 13
E 260 284 13
E 264 285 13
E 265 286 13
E 266 287 13
E 268 289 13
E 269 290 13
E 270 291 13
E 271 272 5
E 272 273 5
E 273 274 5
E 274 275 5
E 275 276 5
E 276 277 5
E 277 278 5
E 278 279 5
E 279 280 5
E 280 281 5
E 281 282 5
E 282 283 5
E 283 284 5
E 285 286 5
E 286 287 5
E 287 288 5
E 288 289 5
E 289 290 5
E 290 291 5
E 271 292 13
E 272 293 13
E 273 294 13
E 274 295 13
E 275 296 13
E 276 297 13
E 277 298 13
E 278 299 13
E 279 300 13
E 280 301 13
E 281 302 13
E 282 303 13
E 283 304 13
E 284 305 13
E 285 309 13
E 286 310 13
E 287 311 13
E 288 312 13
E 289 313 13
E 291 315 13
E 292 293 5
E 293 294 5
E 294 295 5
E 295 296 5
E 296 297 5
E 297 298 5
E 298 299 5
E 299 300 5
E 300 301 5
E 301 302 5
E 302 303 5
E 303 304 5
E 304 305 5
E 305 306 5
E 306 307 5
E 307 308 5
E 308 309 5
E 309 310 5
E 310 311 5
E 311 312 5
E 312 313 5
E 313 314 5
E 314 315 5
E 293 316 13
E 294 317 13
E 295 318 13
E 296 319 13
E 297 320 13
E 298 321 13
E 299 322 13
E 300 323 13
E 301 324 13
E 304 327 13
E 305 328 13
E 306 329 13
E 307 330 13
E 308 331 13
E 309 332 13
E 313 333 13
E 315 335 13
E 316 317 5
E 317 318 5
E 318 319 5
E 319 320 5
E 320 321 5
E 321 322 5
E 322 323 5
E 323 324 5
E 324 325 5
E 325 326 5
E 326 327 5
E 327 328 5
E 328 329 5
E 329 330 5
E 330 331 5
E 331 332 5
E 333 334 5
E 334 335 5
E 316 336 13
E 317 337 13
E 319 338 13
E 320 339 13
E 321 340 13
E 323 341 13
E 324 342 13
E 325 343 13
E 326 344 13
E 327 345 13
E 328 346 13
E 330 348 13
E 331 349 13
E 332 350 13
E 333 354 13
E 334 355 13
E 335 356 13
E 336 337 5
E 338 339 5
E 339 340 5
E 341 342 5
E 342 343 5
E 343 344 5
E 344 345 5
E 345 346 5
E 346 347 5
E 347 348 5
E 348 349 5
E 349 350 5
E 350 351 5
E 351 352 5
E 352 353 5
E 353 354 5
E 354 355 5
E 355 356 5
E 336 358 13
E 337 359 13
E 338 360 13
E 339 361 13
E 340 362 13
E 341 363 13
E 342 364 13
E 343 365 13
E 344 366 13
E 345 367 13
E 346 368 13
E 347 369 13
E 348 370 13
E 349 371 13
E 350 372 13
E 351 373 13
E 352 374 13
E 353 375 13
E 354 376 13
E 355 377 13
E 356 378 13
E 357 358 5
E 358 359 5
E 360 361 5
E 361 362 5
E 363 364 5
E 364 365 5
E 365 366 5
E 366 367 5
E 367 368 5
E 368 369 5
E 369 370 5
E 370 371 5
E 371 372 5
E 372 373 5
E 373 374 5
E 374 375 5
E 375 376 5
E 376 377 5
E 377 378 5
E 357 379 13
E 358 380 13
E 359 381 13
E 360 383 13
E 361 384 13
E 362 385 13
E 363 387 13
E 364 388 13
E 365 389 13
E 366 390 13
E 367 391 13
E 368 392 13
E 370 394 13
E 372 396 13
E 374 398 13
E 375 399 13
E 376 400 13
E 378 402 13
E 379 380 5
E 380 381 5
E 381 382 5
E 382 383 5
E 383 384 5
E 384 385 5
E 385 386 5
E 386 387 5
E 387 388 5
E 388 389 5
E 389 390 5
E 390 391 5
E 391 392 5
E 392 393 5
E 393 394 5
E 394 395 5
E 395 396 5
E 396 397 5
E 397 398 5
E 398 399 5
E 399 400 5
E 400 401 5
E 401 402 5
END

SECTION Terminals
Terminals 16
T 1
T 52
T 57
T 82
T 84
T 86
T 170
T 192
T 198
T 218
T 219
T 239
T 328
T 368
T 370
T 376
END

EOF
